1024
2048
3072
4096
6144
8192
12288
16384
20480
24576
28672
32768
40960
49152
65536
98304
131072
196608
262144
393216
524288
786432
1048576
1310720
1572864
1835008
2097152
2359296
2621440
2883584
3145728
4194304
5242880
6291456
7340032
8388608
9437184
10485760
12582912
14680064
16777216
20971520
25165824
29360128
33554432
41943040
50331648
58720256
67108864
134217728
